B=4;
D=1;
P=7;
S=7;
demands = [2 4 4 2 4 4 2 ];
capacities = [10 5 10 7 2 6 6 ];
dist_start = [2 6 3 6 9 6 7 ];
dist = [3 9 6 4 6 4 3 7 1 3 4 5 2 1 1 3 10 2 1 9 8 6 6 1 3 10 7 2 7 5 7 10 6 3 5 3 8 7 10 9 10 3 5 3 5 8 5 4 9 ];
